(declare-fun v0 () Bool)
(declare-fun v1 () Bool)
(declare-fun v2 () Bool)
(get-qe (forall ((q0 Bool) (q1 Bool) (q2 Real) (q3 Real) (q4 Bool) (q5 Bool) (q6 Bool) (q7 Real)) (and v2                                                                                           v1        v0)))
(get-qe (forall ((q8 Bool) (q9 Bool) (q10 Bool) (q11 Bool) (q12 Bool) (q13 Real) (q14 Real) (q15 Real)) (and v0                                                                                                                                                                                                                                  v1    v2)))
